c INSTANCE 1
p edge 6 10
e 1 2 19
e 1 5 12
e 1 6 7
e 2 5 20
e 2 6 2
e 3 4 7
e 3 5 14
e 4 5 13
e 4 6 9
e 5 6 16
c INSTANCE 2
p edge 6 8
e 1 3 20
e 1 6 16
e 2 4 18
e 2 5 8
e 3 4 4
e 3 5 15
e 3 6 19
e 4 5 15
c INSTANCE 3
p edge 6 8
e 1 2 15
e 1 3 10
e 1 5 4
e 2 4 13
e 2 6 3
e 3 4 16
e 3 6 6
e 4 6 8